nApps = 215
nRes = 9
nActs = 414
nNetworks = 6

assignmentToResources = [2,3,1,1,2,1,1,3,3,3,3,2,3,1,1,2,1,2,1,2,2,1,2,3,1,2,2,2,1,2,1,3,1,1,2,1,2,2,3,2,2,2,3,2,2,1,3,2,2,2,1,2,2,3,3,1,3,1,1,1,3,3,2,1,2,3,3,2,1,2,3,3,2,2,1,3,3,3,3,3,1,3,1,1,3,3,3,1,2,3,3,1,3,1,1,1,3,1,1,2,5,5,5,5,6,6,6,4,4,4,4,5,5,5,5,4,4,4,4,4,6,6,6,6,6,6,6,6,6,6,5,6,4,4,5,5,5,4,4,5,4,5,5,5,4,4,4,4,6,6,6,4,4,5,5,5,5,5,5,5,5,4,4,5,5,4,4,4,6,6,4,4,4,5,5,4,4,5,5,5,6,6,5,6,5,4,4,4,6,6,5,5,5,4,5,5,6,4,4,6,4,6,6,6,5,5,4,5,5,5,4,4,5,6,5,5,5,5,4,6,6,6,6,6,6,4,4,5,6,6,6,6,6,4,4,4,4,4,4,4,4,5,7,6,8,5,7,4,8,6,7,4,9,6,7,6,7,4,8,5,7,4,9,5,7,4,9,5,9,4,8,5,9,7,9,7,7,7,8,7,8,8,8,8,9,7,9,9,8,9,8,9,9,8,7,8,8,8,7,7,7,7,8,9,8,9,8,9,9,7,9,8,9,9,9,7,7,8,9,9,8,8,8,8,9,8,9,7,9,7,9,7,7,9,8,9,7,7,8,8,9,8,7,9,9,9,9,9,8,9,7,9,9,7,8,7,8,7,9,8,8,8,7,9,9,9,9,7,9,7,9,9,8,9,7,7,7,7,7,9,9,7,7,9,8,7,8,9,9,7,7,8,7,8,7,7,7,7,9,9,7,8,7,7,7,7,9,9,8,9,9,9,9,9];

processingTimes = [112,104,56,72,112,136,72,120,168,48,56,56,120,96,144,128,168,48,104,80,72,144,96,88,112,136,104,88,64,104,112,136,120,56,136,136,128,104,112,120,128,64,120,120,160,72,120,120,112,136,112,152,136,64,112,120,160,104,112,104,104,168,96,120,128,56,112,56,128,88,136,88,120,128,88,120,136,152,64,136,112,128,136,128,88,48,152,64,120,128,72,120,120,136,128,72,136,128,104,64,500,3,500,3,3,1000,5,4,4,4,4,4,6,3,3,3,13,1000,3,500,3,1000,4,1000,4,8,1000,3,3,8,500,4,500,1000,4,3,3,5,3,4,3,500,3,3,4,500,4,4,500,13,16,5,3,4,3,4,500,3,4,3,500,13,4,8,8,4,4,5,4,1000,3,4,4,500,5,4,500,3,5,8,4,4,3,4,4,5,4,1000,8,1000,13,3,5,3,500,4,1000,4,3,13,4,3,3,1000,13,8,3,4,4,4,6,3,4,4,7,4,4,4,3,4,3,4,8,4,4,500,3,4,4,4,5,7,4,3,3,1000,8,4,4,5,3,500,500,500,500,500,500,500,500,3,3,5,5,5,5,4,4,4,4,8,8,8,8,200,200,200,200,3,3,1000,1000,500,500,500,3,500,3,3,1000,5,4,4,4,4,4,6,3,3,3,13,1000,3,500,3,1000,4,1000,4,8,1000,3,3,8,500,4,500,1000,4,3,3,5,3,4,3,500,3,3,4,500,4,4,500,13,16,5,3,4,3,4,500,3,4,3,500,13,4,8,8,4,4,5,4,1000,3,4,4,500,5,4,500,3,5,8,4,4,3,4,4,5,4,1000,8,1000,13,3,5,3,500,4,1000,4,3,13,4,3,3,1000,13,8,3,4,4,4,6,3,4,4,7,4,4,4,3,4,3,4,8,4,4,500,3,4,4,4,5,7,4,3,3,1000,8,4,4,5,3];

periods = [10000,10000,10000,20000,20000,100000,10000,100000,10000,50000,20000,10000,10000,10000,20000,20000,20000,2000,50000,20000,100000,10000,10000,5000,2000,10000,20000,100000,10000,20000,100000,10000,50000,20000,100000,10000,10000,10000,10000,100000,20000,20000,20000,100000,10000,10000,10000,100000,20000,100000,10000,5000,100000,20000,10000,10000,20000,100000,100000,10000,50000,20000,20000,20000,20000,2000,100000,20000,5000,10000,20000,2000,1000,100000,10000,100000,100000,20000,10000,20000,20000,20000,100000,10000,100000,20000,100000,20000,20000,100000,10000,20000,5000,20000,10000,10000,1000,20000,20000,20000,10000,10000,10000,10000,10000,10000,10000,10000,10000,20000,20000,20000,20000,20000,20000,100000,100000,100000,10000,10000,100000,100000,100000,10000,10000,50000,50000,50000,20000,20000,10000,10000,10000,20000,20000,20000,20000,20000,20000,2000,50000,20000,20000,100000,10000,10000,10000,10000,5000,5000,5000,2000,2000,10000,10000,10000,20000,20000,100000,100000,100000,10000,10000,20000,20000,100000,100000,100000,10000,10000,50000,20000,20000,100000,100000,10000,10000,10000,10000,10000,10000,10000,100000,20000,10000,10000,10000,10000,10000,10000,100000,20000,100000,10000,5000,100000,20000,10000,10000,20000,100000,50000,20000,20000,20000,20000,20000,20000,20000,20000,5000,5000,10000,2000,1000,1000,100000,100000,10000,100000,100000,20000,20000,20000,20000,100000,100000,20000,100000,100000,100000,10000,5000,20000,20000,10000,10000,10000,20000,20000,20000,20000,20000,20000,20000,20000,20000,20000,20000,100000,100000,100000,100000,100000,100000,10000,10000,10000,10000,20000,20000,20000,20000,2000,2000,2000,2000,10000,10000,20000,20000,20000,20000,10000,10000,10000,10000,10000,10000,10000,10000,10000,20000,20000,20000,20000,20000,20000,100000,100000,100000,10000,10000,100000,100000,100000,10000,10000,50000,50000,50000,20000,20000,10000,10000,10000,20000,20000,20000,20000,20000,20000,2000,50000,20000,20000,100000,10000,10000,10000,10000,5000,5000,5000,2000,2000,10000,10000,10000,20000,20000,100000,100000,100000,10000,10000,20000,20000,100000,100000,100000,10000,10000,50000,20000,20000,100000,100000,10000,10000,10000,10000,10000,10000,10000,100000,20000,10000,10000,10000,10000,10000,10000,100000,20000,100000,10000,5000,100000,20000,10000,10000,20000,100000,50000,20000,20000,20000,20000,20000,20000,20000,20000,5000,5000,10000,2000,1000,1000,100000,100000,10000,100000,100000,20000,20000,20000,20000,100000,100000,20000,100000,100000,100000,10000,5000,20000,20000,10000,10000,10000,20000,20000,20000];

assignmentToClusters = [1,2,3,4,5,6,7,8,9,10,11,12,13,9,14,15,16,17,18,19,20,21,22,23,17,24,4,20,25,16,6,26,27,4,28,29,30,9,30,31,32,33,34,20,35,36,37,20,38,28,39,40,28,41,42,43,44,6,45,46,47,48,49,50,51,52,6,19,53,54,49,17,55,28,56,57,58,16,59,4,60,61,62,63,64,65,66,67,4,6,68,69,70,67,71,72,73,74,38,19,75,76,77,78,79,80,81,82,83,84,85,86,87,88,89,90,91,92,93,94,95,96,97,98,99,100,101,102,103,104,105,106,107,108,109,110,111,112,113,114,115,116,117,118,119,120,121,122,123,124,125,126,127,128,129,130,131,132,133,134,135,136,137,138,139,140,141,142,143,144,145,146,147,148,149,150,151,152,153,154,155,156,157,158,159,160,161,162,163,164,165,166,167,168,169,170,171,172,173,174,175,176,177,178,179,180,181,182,183,184,185,186,187,188,189,190,191,192,193,194,195,196,197,198,199,200,201,202,203,204,205,206,207,208,209,210,211,212,213,214,215,4,4,4,4,4,4,4,4,6,6,6,6,6,6,9,9,9,9,16,16,16,16,17,17,17,17,30,30,38,38,49,49,75,76,77,78,79,80,81,82,83,84,85,86,87,88,89,90,91,92,93,94,95,96,97,98,99,100,101,102,103,104,105,106,107,108,109,110,111,112,113,114,115,116,117,118,119,120,121,122,123,124,125,126,127,128,129,130,131,132,133,134,135,136,137,138,139,140,141,142,143,144,145,146,147,148,149,150,151,152,153,154,155,156,157,158,159,160,161,162,163,164,165,166,167,168,169,170,171,172,173,174,175,176,177,178,179,180,181,182,183,184,185,186,187,188,189,190,191,192,193,194,195,196,197,198,199,200,201,202,203,204,205,206,207,208,209,210,211,212,213,214,215];

precedenceAdjList = [[],[],[],[242],[],[250],[],[],[],[],[],[],[],[256],[],[],[260],[],[],[],[47],[],[],[],[264],[],[244],[],[],[],[5],[],[],[246],[],[],[],[258],[268],[],[],[],[],[],[],[],[],[43,27],[270],[52],[],[],[34],[],[],[],[],[254],[],[],[],[],[],[],[],[],[252],[99],[],[],[272],[266],[],[49],[],[],[],[262],[],[],[],[],[],[],[],[],[],[93],[248],[],[],[],[],[],[],[],[],[],[],[19],[],[],[],[],[],[],[],[],[],[],[],[],[],[],[],[],[],[],[],[],[],[],[],[],[],[],[],[],[],[],[],[],[],[],[],[],[],[],[],[],[],[],[],[],[],[],[],[],[],[],[],[],[],[],[],[],[],[],[],[],[],[],[],[],[],[],[],[],[],[],[],[],[],[],[],[],[],[],[],[],[],[],[],[],[],[],[],[],[],[],[],[],[],[],[],[],[],[],[],[],[],[],[],[],[],[],[],[],[],[],[],[],[],[],[],[],[],[],[],[],[],[],[],[],[],[],[],[],[],[],[],[],[],[],[],[],[],[],[],[],[],[26],[241],[79],[243],[26],[245],[3],[247],[66],[249],[57],[251],[89],[253],[8],[255],[13],[257],[29],[259],[16],[261],[17],[263],[24],[265],[36],[267],[98],[269],[62],[271],[100],[101],[102],[103],[104],[105],[106],[107],[108],[109],[110],[111],[112],[113],[114],[115],[116],[117],[118],[119],[120],[121],[122],[123],[124],[125],[126],[127],[128],[129],[130],[131],[132],[133],[134],[135],[136],[137],[138],[139],[140],[141],[142],[143],[144],[145],[146],[147],[148],[149],[150],[151],[152],[153],[154],[155],[156],[157],[158],[159],[160],[161],[162],[163],[164],[165],[166],[167],[168],[169],[170],[171],[172],[173],[174],[175],[176],[177],[178],[179],[180],[181],[182],[183],[184],[185],[186],[187],[188],[189],[190],[191],[192],[193],[194],[195],[196],[197],[198],[199],[200],[201],[202],[203],[204],[205],[206],[207],[208],[209],[210],[211],[212],[213],[214],[215],[216],[217],[218],[219],[220],[221],[222],[223],[224],[225],[226],[227],[228],[229],[230],[231],[232],[233],[234],[235],[236],[237],[238],[239],[240]];